
Gurobi 13.0.2 (win64) logging started Fri Jul 24 09:20:19 2026

Set parameter LogFile to value "E:\codes\ExactEBRP\results\gf_c0_mechanism_transfer_c5_round30\runs\stage2__high_imbalance_seed5203__c5_candidate__300s\external\native_logs\L2.0.1.0_terminal_mip.gurobi.log"
Gurobi Optimizer version 13.0.2 build v13.0.2rc1 (win64 - Windows 10.0 (19045.2))

CPU model: 12th Gen Intel(R) Core(TM) i7-12700KF, instruction set [SSE2|AVX|AVX2]
Thread count: 12 physical cores, 20 logical processors, using up to 1 threads

Non-default parameters:
TimeLimit  2.4834319390000002e+02
MIPGap  0
MIPGapAbs  0
LogToConsole  0
Threads  1

Optimize a model with 11922 rows, 3380 columns and 67404 nonzeros (Min)
Model fingerprint: 0xc5817d11
Model has 21 linear objective coefficients
Variable types: 1687 continuous, 1693 integer (1493 binary)
Coefficient statistics:
  Matrix range     [2e-02, 2e+04]
  Objective range  [2e-02, 1e+00]
  Bounds range     [5e-01, 4e+03]
  RHS range        [5e-01, 5e+04]

Presolve removed 2022 rows and 72 columns
Presolve time: 0.19s
Presolved: 9900 rows, 3308 columns, 70573 nonzeros
Variable types: 1642 continuous, 1666 integer (1484 binary)

Root relaxation: objective 2.029885e+00, 3390 iterations, 0.15 seconds (0.38 work units)

    Nodes    |    Current Node    |     Objective Bounds      |     Work
 Expl Unexpl |  Obj  Depth IntInf | Incumbent    BestBd   Gap | It/Node Time

     0     0    2.02989    0  209          -    2.02989      -     -    0s
     0     0    2.13469    0  211          -    2.13469      -     -    0s
     0     0    2.20385    0  237          -    2.20385      -     -    0s
     0     0    2.20641    0  218          -    2.20641      -     -    0s
     0     0    2.20991    0  281          -    2.20991      -     -    1s
     0     0    2.21111    0  265          -    2.21111      -     -    1s
     0     0    2.24661    0  298          -    2.24661      -     -    1s
     0     0    2.24801    0  305          -    2.24801      -     -    1s
     0     0    2.25263    0  325          -    2.25263      -     -    2s
     0     0    2.25345    0  334          -    2.25345      -     -    2s
     0     0    2.25499    0  323          -    2.25499      -     -    2s
     0     0    2.25527    0  327          -    2.25527      -     -    2s
     0     0    2.25807    0  334          -    2.25807      -     -    3s
     0     0    2.25879    0  334          -    2.25879      -     -    3s
     0     0    2.26048    0  328          -    2.26048      -     -    3s
     0     0    2.26093    0  322          -    2.26093      -     -    3s
     0     0    2.26191    0  307          -    2.26191      -     -    4s
     0     0    2.26324    0  305          -    2.26324      -     -    4s
     0     0    2.26434    0  302          -    2.26434      -     -    4s
     0     0    2.26457    0  271          -    2.26457      -     -    4s
     0     0    2.26524    0  305          -    2.26524      -     -    4s
     0     0    2.26557    0  324          -    2.26557      -     -    5s
     0     0    2.26602    0  310          -    2.26602      -     -    5s
     0     0    2.26627    0  310          -    2.26627      -     -    5s
     0     0    2.26683    0  338          -    2.26683      -     -    5s
     0     0    2.26693    0  320          -    2.26693      -     -    5s
     0     0    2.26730    0  337          -    2.26730      -     -    5s
     0     0    2.26756    0  343          -    2.26756      -     -    6s
     0     0    2.26865    0  283          -    2.26865      -     -    6s
     0     0    2.26883    0  299          -    2.26883      -     -    6s
     0     0    2.26912    0  332          -    2.26912      -     -    6s
     0     0    2.26925    0  344          -    2.26925      -     -    6s
     0     0    2.26934    0  336          -    2.26934      -     -    6s
     0     0    2.26949    0  346          -    2.26949      -     -    6s
     0     0    2.26960    0  340          -    2.26960      -     -    7s
     0     0    2.26963    0  340          -    2.26963      -     -    7s
     0     0    2.26963    0  332          -    2.26963      -     -    7s
     0     2    2.26978    0  332          -    2.26978      -     -    8s
    33    35    2.29323   29  230          -    2.27445      -   162   10s
   249   233    2.30389   33  212          -    2.27879      -  79.1   15s
   542   441 infeasible   15               -    2.28740      -  90.5   20s
   581   477    2.33546   31  321          -    2.28740      -  87.0   25s
   586   480    2.33362   58  353          -    2.28740      -  86.2   30s
   591   484    2.31438   10  393          -    2.28740      -  85.5   35s
   598   488    2.32422   56  379          -    2.28740      -  84.5   41s
   604   494    2.28783   12  307          -    2.28740      -   127   45s
   629   493    2.34522   25  202          -    2.28740      -   133   50s
   654   490    2.29989   17  257          -    2.28740      -   142   55s
   707   475    2.34580   25  145          -    2.28740      -   153   60s
   762   462    2.32997   22  169          -    2.28783      -   163   65s
   782   463    2.34250   32  116          -    2.28783      -   163   70s
   818   458    2.34311   21  221          -    2.29659      -   165   75s
   872   444    2.32894   19  212          -    2.31650      -   170   80s
   940   455    2.35087   32  243          -    2.32981      -   169   85s
  1065   334 infeasible   17               -    2.60928      -   169   90s

Cutting planes:
  Learned: 9
  Gomory: 1
  Cover: 55
  Implied bound: 87
  Projected implied bound: 7
  Clique: 8
  MIR: 85
  StrongCG: 5
  Flow cover: 126
  GUB cover: 4
  Zero half: 2
  Network: 15
  RLT: 3
  Relax-and-lift: 50
  BQP: 2

Explored 1067 nodes (202658 simplex iterations) in 90.01 seconds (160.08 work units)
Thread count was 1 (of 20 available processors)

Solution count 0

Model is infeasible
Best objective -, best bound -, gap -

User-callback calls 29792, time in user-callback 0.01 sec
